db/data/37989948257011958718056138881968410608.z3.out
sat
-------------------
398.277556677
